p cnf 7230 14
1742 -2329 0
-1742 -1778 2328 0
-2328 2329 0
-2323 2327 0
2325 -2327 0
-2324 2326 0
1740 -2326 0
2324 -2325 0
-2322 2323 0
-1740 2322 0
1778 -2329 0
-2320 2321 0
2320 -2321 0
1742 -2331 0
